# Objective value = 54
WA1n 0
WA1p 0
WA2n 0
WA2p 1
WB1n 0
WB1p 0
WB2n 0
WB2p 1
WC1n 1
WC1p 0
WD1n 0
WD1p 1
WE1n 0
WE1p 1
WF1n 0
WF1p 1
WG1n 5
WG1p 0
WG2n 0
WG2p 0
WH1n 6
WH1p 0
WH2n 0
WH2p 0
WI1n 6
WI1p 0
WI2n 0
WI2p 0
WJ1n 17
WJ1p 0
WJ2n 0
WJ2p 0
WT1n 12
WT1p 0
100 112
a 1
b 1
c 1
d 1
e 1
f 1
g 1
h 1
i 1
j 1
k 1
l 1
m 1
n 1
o 0
p 0
q 1
